c 1 n8
c 2 n6
c 5 n10
c 8 n4
c 14 n2
c 28 S
p cnf 39 87
-3 1 0
-3 2 0
3 -1 -2 0
4 3 0
-4 -3 0
-6 4 0
-6 5 0
6 -4 -5 0
7 6 0
-7 -6 0
-9 4 0
-9 8 0
9 -4 -8 0
10 9 0
-10 -9 0
-11 7 0
-11 10 0
11 -7 -10 0
12 11 0
-12 -11 0
13 12 0
-13 -12 0
-15 14 0
-15 8 0
15 -14 -8 0
16 15 0
-16 -15 0
17 14 0
-17 -14 0
18 8 0
-18 -8 0
-19 17 0
-19 18 0
19 -17 -18 0
20 19 0
-20 -19 0
-21 16 0
-21 20 0
21 -16 -20 0
-22 21 0
-22 2 0
22 -21 -2 0
23 22 0
-23 -22 0
-24 23 0
-24 16 0
24 -23 -16 0
25 24 0
-25 -24 0
26 25 0
-26 -25 0
27 -13 0
27 -26 0
-27 13 26 0
29 28 0
-29 -28 0
30 -27 0
30 -29 0
-30 27 29 0
31 -12 0
31 -25 0
-31 12 25 0
32 -31 0
32 -29 0
-32 31 29 0
-33 30 0
-33 32 0
33 -30 -32 0
34 -12 0
34 -26 0
-34 12 26 0
35 -34 0
35 -28 0
-35 34 28 0
-36 33 0
-36 35 0
36 -33 -35 0
37 -13 0
37 -25 0
-37 13 25 0
38 -37 0
38 -28 0
-38 37 28 0
-39 36 0
-39 38 0
39 -36 -38 0
-39 0
